formal/top_router/model/design_smt2.smt2
; SMT-LIBv2 description generated by Yosys 0.55+112 (git sha1 bf9aaac0f, clang++ 18.1.3 -fPIC -O3)
; yosys-smt2-module router_mesh
(declare-sort |router_mesh_s| 0)
(declare-fun |router_mesh_is| (|router_mesh_s|) Bool)
(declare-fun |router_mesh#0| (|router_mesh_s|) Bool) ; \rst_n
; yosys-smt2-input rst_n 1
; yosys-smt2-wire rst_n 1
; yosys-smt2-witness {"offset": 0, "path": ["\\rst_n"], "smtname": "rst_n", "smtoffset": 0, "type": "input", "width": 1}
(define-fun |router_mesh_n rst_n| ((state |router_mesh_s|)) Bool (|router_mesh#0| state))
(declare-fun |router_mesh#1| (|router_mesh_s|) (_ BitVec 80)) ; \fully_flat_tile_valid_in
; yosys-smt2-output fully_flat_tile_valid_out 80
; yosys-smt2-wire fully_flat_tile_valid_out 80
(define-fun |router_mesh_n fully_flat_tile_valid_out| ((state |router_mesh_s|)) (_ BitVec 80) (|router_mesh#1| state))
; yosys-smt2-input fully_flat_tile_valid_in 80
; yosys-smt2-wire fully_flat_tile_valid_in 80
; yosys-smt2-witness {"offset": 0, "path": ["\\fully_flat_tile_valid_in"], "smtname": "fully_flat_tile_valid_in", "smtoffset": 0, "type": "input", "width": 80}
(define-fun |router_mesh_n fully_flat_tile_valid_in| ((state |router_mesh_s|)) (_ BitVec 80) (|router_mesh#1| state))
(declare-fun |router_mesh#2| (|router_mesh_s|) (_ BitVec 80)) ; \fully_flat_tile_ready_in
; yosys-smt2-output fully_flat_tile_ready_out 80
; yosys-smt2-wire fully_flat_tile_ready_out 80
(define-fun |router_mesh_n fully_flat_tile_ready_out| ((state |router_mesh_s|)) (_ BitVec 80) (|router_mesh#2| state))
; yosys-smt2-input fully_flat_tile_ready_in 80
; yosys-smt2-wire fully_flat_tile_ready_in 80
; yosys-smt2-witness {"offset": 0, "path": ["\\fully_flat_tile_ready_in"], "smtname": "fully_flat_tile_ready_in", "smtoffset": 0, "type": "input", "width": 80}
(define-fun |router_mesh_n fully_flat_tile_ready_in| ((state |router_mesh_s|)) (_ BitVec 80) (|router_mesh#2| state))
(declare-fun |router_mesh#3| (|router_mesh_s|) (_ BitVec 5120)) ; \fully_flat_tile_flit_in
; yosys-smt2-output fully_flat_tile_flit_out 5120
; yosys-smt2-wire fully_flat_tile_flit_out 5120
(define-fun |router_mesh_n fully_flat_tile_flit_out| ((state |router_mesh_s|)) (_ BitVec 5120) (|router_mesh#3| state))
; yosys-smt2-input fully_flat_tile_flit_in 5120
; yosys-smt2-wire fully_flat_tile_flit_in 5120
; yosys-smt2-witness {"offset": 0, "path": ["\\fully_flat_tile_flit_in"], "smtname": "fully_flat_tile_flit_in", "smtoffset": 0, "type": "input", "width": 5120}
(define-fun |router_mesh_n fully_flat_tile_flit_in| ((state |router_mesh_s|)) (_ BitVec 5120) (|router_mesh#3| state))
; yosys-smt2-wire flat_tile_valid_out 80
(define-fun |router_mesh_n flat_tile_valid_out| ((state |router_mesh_s|)) (_ BitVec 80) (|router_mesh#1| state))
; yosys-smt2-wire flat_tile_valid_in 80
(define-fun |router_mesh_n flat_tile_valid_in| ((state |router_mesh_s|)) (_ BitVec 80) (|router_mesh#1| state))
; yosys-smt2-wire flat_tile_ready_out 80
(define-fun |router_mesh_n flat_tile_ready_out| ((state |router_mesh_s|)) (_ BitVec 80) (|router_mesh#2| state))
; yosys-smt2-wire flat_tile_ready_in 80
(define-fun |router_mesh_n flat_tile_ready_in| ((state |router_mesh_s|)) (_ BitVec 80) (|router_mesh#2| state))
; yosys-smt2-wire flat_tile_flit_out 5120
(define-fun |router_mesh_n flat_tile_flit_out| ((state |router_mesh_s|)) (_ BitVec 5120) (|router_mesh#3| state))
; yosys-smt2-wire flat_tile_flit_in 5120
(define-fun |router_mesh_n flat_tile_flit_in| ((state |router_mesh_s|)) (_ BitVec 5120) (|router_mesh#3| state))
; yosys-smt2-anyseq router_mesh#4 1 $auto$setundef.cc:348:execute$271
; yosys-smt2-witness {"offset": 0, "path": ["\\ext_valid_out"], "smtname": 4, "smtoffset": 0, "type": "seq", "width": 1}
(declare-fun |router_mesh#4| (|router_mesh_s|) (_ BitVec 1)) ; \ext_valid_out
; yosys-smt2-output ext_valid_out 1
; yosys-smt2-wire ext_valid_out 1
(define-fun |router_mesh_n ext_valid_out| ((state |router_mesh_s|)) Bool (= ((_ extract 0 0) (|router_mesh#4| state)) #b1))
(declare-fun |router_mesh#5| (|router_mesh_s|) Bool) ; \ext_valid_in
; yosys-smt2-input ext_valid_in 1
; yosys-smt2-wire ext_valid_in 1
; yosys-smt2-witness {"offset": 0, "path": ["\\ext_valid_in"], "smtname": "ext_valid_in", "smtoffset": 0, "type": "input", "width": 1}
(define-fun |router_mesh_n ext_valid_in| ((state |router_mesh_s|)) Bool (|router_mesh#5| state))
; yosys-smt2-anyseq router_mesh#6 1 $auto$setundef.cc:348:execute$273
; yosys-smt2-witness {"offset": 0, "path": ["\\ext_ready_out"], "smtname": 6, "smtoffset": 0, "type": "seq", "width": 1}
(declare-fun |router_mesh#6| (|router_mesh_s|) (_ BitVec 1)) ; \ext_ready_out
; yosys-smt2-output ext_ready_out 1
; yosys-smt2-wire ext_ready_out 1
(define-fun |router_mesh_n ext_ready_out| ((state |router_mesh_s|)) Bool (= ((_ extract 0 0) (|router_mesh#6| state)) #b1))
(declare-fun |router_mesh#7| (|router_mesh_s|) Bool) ; \ext_ready_in
; yosys-smt2-input ext_ready_in 1
; yosys-smt2-wire ext_ready_in 1
; yosys-smt2-witness {"offset": 0, "path": ["\\ext_ready_in"], "smtname": "ext_ready_in", "smtoffset": 0, "type": "input", "width": 1}
(define-fun |router_mesh_n ext_ready_in| ((state |router_mesh_s|)) Bool (|router_mesh#7| state))
; yosys-smt2-anyseq router_mesh#8 1 $auto$setundef.cc:348:execute$275
; yosys-smt2-witness {"offset": 0, "path": ["\\ext_flit_out"], "smtname": 8, "smtoffset": 0, "type": "seq", "width": 1}
(declare-fun |router_mesh#8| (|router_mesh_s|) (_ BitVec 1)) ; \ext_flit_out [0]
; yosys-smt2-anyseq router_mesh#9 63 $auto$setundef.cc:348:execute$269
; yosys-smt2-witness {"offset": 1, "path": ["\\ext_flit_out"], "smtname": 9, "smtoffset": 0, "type": "seq", "width": 63}
(declare-fun |router_mesh#9| (|router_mesh_s|) (_ BitVec 63)) ; \ext_flit_out [63:1]
; yosys-smt2-output ext_flit_out 64
; yosys-smt2-wire ext_flit_out 64
(define-fun |router_mesh_n ext_flit_out| ((state |router_mesh_s|)) (_ BitVec 64) (concat (|router_mesh#9| state) (|router_mesh#8| state)))
(declare-fun |router_mesh#10| (|router_mesh_s|) (_ BitVec 64)) ; \ext_flit_in
; yosys-smt2-input ext_flit_in 64
; yosys-smt2-wire ext_flit_in 64
; yosys-smt2-witness {"offset": 0, "path": ["\\ext_flit_in"], "smtname": "ext_flit_in", "smtoffset": 0, "type": "input", "width": 64}
(define-fun |router_mesh_n ext_flit_in| ((state |router_mesh_s|)) (_ BitVec 64) (|router_mesh#10| state))
(declare-fun |router_mesh#11| (|router_mesh_s|) Bool) ; \clk
; yosys-smt2-input clk 1
; yosys-smt2-wire clk 1
; yosys-smt2-witness {"offset": 0, "path": ["\\clk"], "smtname": "clk", "smtoffset": 0, "type": "input", "width": 1}
(define-fun |router_mesh_n clk| ((state |router_mesh_s|)) Bool (|router_mesh#11| state))
(define-fun |router_mesh_a| ((state |router_mesh_s|)) Bool true)
(define-fun |router_mesh_u| ((state |router_mesh_s|)) Bool true)
(define-fun |router_mesh_i| ((state |router_mesh_s|)) Bool true)
(define-fun |router_mesh_h| ((state |router_mesh_s|)) Bool true)
(define-fun |router_mesh_t| ((state |router_mesh_s|) (next_state |router_mesh_s|)) Bool true) ; end of module router_mesh
; yosys-smt2-topmod router_mesh
; end of yosys output
